1 18
2 20
3 16
4 15
5 3
6 16
7 16
8 19
9 7
10 7
11 5
12 15
13 10
14 17
15 7
16 4
17 1
18 13
19 11
20 9
21 8
22 13
23 21
24 21
25 4
26 21
27 17
28 1
29 1
30 1
31 1
32 1
33 1
34 1
35 21
36 3
37 1
38 2
39 2
40 1
41 14
42 2
43 18
44 18
45 10
46 1
47 13
48 14
49 7
50 3
51 8
52 3
53 8
54 9
55 21
56 9
57 7
58 9
59 21
60 4
61 2
62 14
63 16
64 13
65 11
66 14
67 19
68 21
69 11
70 8
71 20
72 20
73 2
74 19
75 11
76 6
77 8
78 20
79 6
80 4
81 7
82 13
83 17
84 16
85 14
86 20
87 10
88 16
89 9
90 6
91 3
92 11
93 3
94 14
95 9
96 16
97 20
98 7
99 3
100 12
101 13
102 5
103 4
104 6
105 6
106 14
107 21
108 18
109 18
110 18
111 21
112 14
113 3
114 4
115 4
116 12
117 20
118 12
119 12
120 7
121 4
122 21
123 15
124 20
125 9
126 10
127 6
128 14
129 14
130 12
131 13
132 13
133 13
134 19
135 19
136 19
137 19
138 3
139 9
140 11
141 17
142 2
143 15
144 8
145 9
146 17
147 6
148 21
149 7
150 21
151 19
152 19
153 10
154 11
155 10
156 7
157 10
158 8
159 8
160 15
161 6
162 16
163 16
164 6
165 6
166 8
167 14
168 11
169 21
170 17
171 5
172 10
173 5
174 5
175 12
176 3
177 9
178 15
179 20
180 20
181 15
